60
1 0 11
2 0 3
2 1 5
3 0 11
3 1 8
3 2 10
4 0 3
4 1 2
4 2 14
4 3 2
5 0 12
5 1 4
5 2 4
5 3 11
5 4 7
6 0 14
6 1 13
6 2 4
6 3 6
6 4 12
6 5 6
7 0 3
7 1 6
7 2 6
7 3 13
7 4 10
7 5 2
7 6 1
8 0 14
8 1 13
8 2 11
8 3 13
8 4 3
8 5 9
8 6 11
8 7 8
9 0 8
9 1 1
9 2 1
9 3 11
9 4 14
9 5 2
9 6 5
9 7 2
9 8 9
10 0 2
10 1 12
10 2 2
10 3 5
10 4 1
10 5 13
10 6 4
10 7 14
10 8 1
10 9 4
11 0 5
11 1 11
11 2 9
11 3 2
11 4 12
11 5 11
11 6 13
11 7 5
11 8 3
11 9 5
11 10 6
12 0 12
12 1 8
12 2 12
12 3 12
12 4 10
12 5 7
12 6 12
12 7 4
12 8 11
12 9 1
12 10 8
12 11 10
13 0 5
13 1 14
13 2 3
13 3 9
13 4 1
13 5 12
13 6 4
13 7 6
13 8 3
13 9 5
13 10 10
13 11 14
13 12 11
14 0 5
14 1 10
14 2 4
14 3 14
14 4 6
14 5 9
14 6 7
14 7 11
14 8 4
14 9 9
14 10 8
14 11 5
14 12 9
14 13 3
15 0 9
15 1 12
15 2 13
15 3 2
15 4 10
15 5 4
15 6 13
15 7 8
15 8 4
15 9 9
15 10 11
15 11 12
15 12 1
15 13 7
15 14 3
16 0 10
16 1 8
16 2 14
16 3 14
16 4 5
16 5 11
16 6 11
16 7 1
16 8 3
16 9 10
16 10 6
16 11 8
16 12 6
16 13 3
16 14 7
16 15 10
17 0 11
17 1 11
17 2 13
17 3 11
17 4 2
17 5 13
17 6 4
17 7 5
17 8 11
17 9 14
17 10 1
17 11 10
17 12 14
17 13 1
17 14 6
17 15 10
17 16 8
18 0 2
18 1 12
18 2 2
18 3 2
18 4 8
18 5 12
18 6 3
18 7 8
18 8 12
18 9 14
18 10 14
18 11 13
18 12 3
18 13 14
18 14 7
18 15 6
18 16 5
18 17 6
19 0 9
19 1 8
19 2 2
19 3 1
19 4 4
19 5 11
19 6 5
19 7 11
19 8 1
19 9 6
19 10 14
19 11 10
19 12 2
19 13 6
19 14 4
19 15 11
19 16 8
19 17 4
19 18 3
20 0 7
20 1 1
20 2 5
20 3 13
20 4 11
20 5 11
20 6 9
20 7 11
20 8 5
20 9 5
20 10 10
20 11 7
20 12 14
20 13 13
20 14 5
20 15 14
20 16 4
20 17 12
20 18 1
20 19 9
21 0 2
21 1 1
21 2 1
21 3 6
21 4 2
21 5 3
21 6 7
21 7 7
21 8 11
21 9 7
21 10 2
21 11 11
21 12 6
21 13 7
21 14 12
21 15 5
21 16 7
21 17 5
21 18 6
21 19 12
21 20 11
22 0 13
22 1 10
22 2 2
22 3 8
22 4 7
22 5 13
22 6 3
22 7 10
22 8 14
22 9 13
22 10 14
22 11 14
22 12 1
22 13 6
22 14 9
22 15 8
22 16 6
22 17 9
22 18 9
22 19 5
22 20 7
22 21 1
23 0 14
23 1 7
23 2 13
23 3 11
23 4 13
23 5 7
23 6 12
23 7 2
23 8 10
23 9 4
23 10 11
23 11 4
23 12 9
23 13 6
23 14 13
23 15 2
23 16 13
23 17 4
23 18 5
23 19 6
23 20 10
23 21 4
23 22 6
24 0 6
24 1 3
24 2 1
24 3 12
24 4 2
24 5 11
24 6 13
24 7 13
24 8 12
24 9 9
24 10 11
24 11 12
24 12 12
24 13 2
24 14 12
24 15 14
24 16 8
24 17 3
24 18 3
24 19 6
24 20 3
24 21 10
24 22 10
24 23 7
25 0 8
25 1 9
25 2 11
25 3 10
25 4 2
25 5 4
25 6 11
25 7 14
25 8 2
25 9 11
25 10 13
25 11 10
25 12 4
25 13 8
25 14 10
25 15 2
25 16 9
25 17 5
25 18 7
25 19 8
25 20 4
25 21 3
25 22 4
25 23 11
25 24 9
26 0 2
26 1 10
26 2 3
26 3 6
26 4 11
26 5 3
26 6 5
26 7 5
26 8 7
26 9 4
26 10 7
26 11 7
26 12 7
26 13 9
26 14 13
26 15 5
26 16 7
26 17 5
26 18 5
26 19 13
26 20 6
26 21 6
26 22 5
26 23 4
26 24 1
26 25 5
27 0 10
27 1 14
27 2 5
27 3 13
27 4 9
27 5 7
27 6 4
27 7 10
27 8 13
27 9 14
27 10 11
27 11 10
27 12 13
27 13 14
27 14 7
27 15 10
27 16 12
27 17 7
27 18 11
27 19 4
27 20 2
27 21 14
27 22 13
27 23 10
27 24 4
27 25 6
27 26 6
28 0 7
28 1 14
28 2 5
28 3 13
28 4 11
28 5 14
28 6 7
28 7 14
28 8 11
28 9 13
28 10 13
28 11 7
28 12 4
28 13 7
28 14 8
28 15 13
28 16 13
28 17 10
28 18 10
28 19 6
28 20 12
28 21 1
28 22 10
28 23 3
28 24 9
28 25 5
28 26 6
28 27 8
29 0 10
29 1 8
29 2 12
29 3 9
29 4 4
29 5 11
29 6 6
29 7 10
29 8 10
29 9 13
29 10 2
29 11 9
29 12 5
29 13 10
29 14 14
29 15 13
29 16 6
29 17 7
29 18 2
29 19 14
29 20 3
29 21 11
29 22 2
29 23 3
29 24 13
29 25 13
29 26 6
29 27 10
29 28 4
30 0 2
30 1 3
30 2 9
30 3 9
30 4 12
30 5 4
30 6 5
30 7 6
30 8 1
30 9 2
30 10 12
30 11 4
30 12 5
30 13 10
30 14 6
30 15 8
30 16 3
30 17 13
30 18 2
30 19 12
30 20 3
30 21 8
30 22 6
30 23 12
30 24 10
30 25 5
30 26 13
30 27 12
30 28 2
30 29 10
31 0 3
31 1 12
31 2 4
31 3 10
31 4 4
31 5 6
31 6 6
31 7 11
31 8 2
31 9 7
31 10 11
31 11 7
31 12 6
31 13 7
31 14 2
31 15 9
31 16 12
31 17 1
31 18 9
31 19 7
31 20 6
31 21 4
31 22 8
31 23 7
31 24 9
31 25 1
31 26 10
31 27 1
31 28 2
31 29 7
31 30 2
32 0 14
32 1 10
32 2 8
32 3 9
32 4 13
32 5 14
32 6 11
32 7 8
32 8 6
32 9 14
32 10 11
32 11 7
32 12 8
32 13 9
32 14 10
32 15 12
32 16 3
32 17 4
32 18 3
32 19 12
32 20 12
32 21 9
32 22 9
32 23 10
32 24 11
32 25 1
32 26 10
32 27 1
32 28 8
32 29 13
32 30 11
32 31 6
33 0 5
33 1 10
33 2 3
33 3 11
33 4 9
33 5 8
33 6 6
33 7 9
33 8 14
33 9 6
33 10 11
33 11 13
33 12 6
33 13 11
33 14 8
33 15 6
33 16 13
33 17 14
33 18 7
33 19 13
33 20 2
33 21 9
33 22 1
33 23 10
33 24 2
33 25 4
33 26 6
33 27 11
33 28 3
33 29 1
33 30 12
33 31 8
33 32 12
34 0 1
34 1 6
34 2 9
34 3 14
34 4 3
34 5 2
34 6 3
34 7 7
34 8 12
34 9 14
34 10 13
34 11 7
34 12 6
34 13 6
34 14 13
34 15 2
34 16 3
34 17 5
34 18 9
34 19 14
34 20 6
34 21 2
34 22 1
34 23 13
34 24 2
34 25 13
34 26 6
34 27 2
34 28 3
34 29 3
34 30 10
34 31 6
34 32 2
34 33 10
35 0 12
35 1 1
35 2 12
35 3 13
35 4 2
35 5 12
35 6 7
35 7 9
35 8 6
35 9 5
35 10 8
35 11 1
35 12 10
35 13 12
35 14 7
35 15 9
35 16 11
35 17 7
35 18 2
35 19 4
35 20 11
35 21 11
35 22 1
35 23 4
35 24 9
35 25 14
35 26 13
35 27 13
35 28 4
35 29 2
35 30 6
35 31 13
35 32 1
35 33 7
35 34 3
36 0 8
36 1 13
36 2 6
36 3 10
36 4 1
36 5 14
36 6 5
36 7 11
36 8 5
36 9 14
36 10 4
36 11 10
36 12 6
36 13 11
36 14 8
36 15 5
36 16 4
36 17 4
36 18 4
36 19 2
36 20 9
36 21 10
36 22 9
36 23 2
36 24 9
36 25 6
36 26 10
36 27 13
36 28 11
36 29 13
36 30 2
36 31 13
36 32 14
36 33 10
36 34 1
36 35 2
37 0 9
37 1 9
37 2 5
37 3 5
37 4 1
37 5 5
37 6 8
37 7 2
37 8 11
37 9 7
37 10 13
37 11 1
37 12 4
37 13 13
37 14 5
37 15 3
37 16 12
37 17 8
37 18 8
37 19 13
37 20 13
37 21 1
37 22 11
37 23 1
37 24 13
37 25 4
37 26 1
37 27 11
37 28 3
37 29 6
37 30 4
37 31 8
37 32 3
37 33 2
37 34 4
37 35 8
37 36 4
38 0 9
38 1 6
38 2 12
38 3 2
38 4 11
38 5 4
38 6 1
38 7 1
38 8 12
38 9 6
38 10 2
38 11 5
38 12 12
38 13 9
38 14 12
38 15 5
38 16 2
38 17 3
38 18 6
38 19 14
38 20 5
38 21 8
38 22 11
38 23 14
38 24 2
38 25 4
38 26 10
38 27 14
38 28 2
38 29 9
38 30 10
38 31 1
38 32 6
38 33 9
38 34 10
38 35 14
38 36 3
38 37 6
39 0 14
39 1 2
39 2 6
39 3 9
39 4 11
39 5 6
39 6 3
39 7 12
39 8 4
39 9 8
39 10 10
39 11 1
39 12 12
39 13 13
39 14 11
39 15 5
39 16 7
39 17 4
39 18 13
39 19 5
39 20 8
39 21 1
39 22 7
39 23 9
39 24 4
39 25 6
39 26 10
39 27 1
39 28 9
39 29 12
39 30 11
39 31 10
39 32 7
39 33 14
39 34 2
39 35 9
39 36 7
39 37 5
39 38 9
40 0 2
40 1 4
40 2 10
40 3 14
40 4 13
40 5 14
40 6 1
40 7 14
40 8 2
40 9 12
40 10 14
40 11 4
40 12 11
40 13 3
40 14 1
40 15 14
40 16 4
40 17 3
40 18 8
40 19 9
40 20 12
40 21 8
40 22 7
40 23 3
40 24 9
40 25 5
40 26 12
40 27 14
40 28 4
40 29 12
40 30 7
40 31 1
40 32 6
40 33 11
40 34 1
40 35 11
40 36 14
40 37 2
40 38 3
40 39 3
41 0 1
41 1 12
41 2 10
41 3 2
41 4 2
41 5 11
41 6 9
41 7 2
41 8 7
41 9 12
41 10 12
41 11 14
41 12 8
41 13 11
41 14 1
41 15 2
41 16 9
41 17 9
41 18 9
41 19 4
41 20 4
41 21 1
41 22 7
41 23 3
41 24 1
41 25 12
41 26 12
41 27 5
41 28 14
41 29 4
41 30 1
41 31 7
41 32 6
41 33 14
41 34 6
41 35 14
41 36 7
41 37 7
41 38 9
41 39 8
41 40 7
42 0 6
42 1 4
42 2 3
42 3 6
42 4 1
42 5 4
42 6 6
42 7 10
42 8 13
42 9 2
42 10 5
42 11 13
42 12 3
42 13 7
42 14 14
42 15 13
42 16 14
42 17 11
42 18 11
42 19 14
42 20 9
42 21 12
42 22 4
42 23 7
42 24 2
42 25 13
42 26 3
42 27 5
42 28 11
42 29 3
42 30 11
42 31 6
42 32 10
42 33 3
42 34 7
42 35 3
42 36 12
42 37 5
42 38 12
42 39 1
42 40 6
42 41 14
43 0 2
43 1 8
43 2 1
43 3 3
43 4 7
43 5 3
43 6 14
43 7 13
43 8 14
43 9 9
43 10 9
43 11 3
43 12 2
43 13 14
43 14 3
43 15 7
43 16 14
43 17 1
43 18 10
43 19 11
43 20 4
43 21 4
43 22 11
43 23 1
43 24 1
43 25 11
43 26 2
43 27 9
43 28 12
43 29 9
43 30 2
43 31 6
43 32 10
43 33 5
43 34 9
43 35 2
43 36 6
43 37 4
43 38 2
43 39 12
43 40 14
43 41 3
43 42 12
44 0 8
44 1 1
44 2 14
44 3 7
44 4 14
44 5 12
44 6 12
44 7 14
44 8 7
44 9 3
44 10 5
44 11 10
44 12 13
44 13 4
44 14 13
44 15 1
44 16 2
44 17 3
44 18 1
44 19 1
44 20 6
44 21 3
44 22 12
44 23 2
44 24 8
44 25 10
44 26 14
44 27 8
44 28 13
44 29 2
44 30 1
44 31 8
44 32 14
44 33 12
44 34 3
44 35 13
44 36 12
44 37 3
44 38 12
44 39 1
44 40 2
44 41 2
44 42 13
44 43 11
45 0 1
45 1 11
45 2 10
45 3 11
45 4 6
45 5 7
45 6 13
45 7 2
45 8 1
45 9 4
45 10 13
45 11 14
45 12 2
45 13 6
45 14 9
45 15 5
45 16 8
45 17 11
45 18 4
45 19 9
45 20 12
45 21 11
45 22 12
45 23 13
45 24 4
45 25 3
45 26 10
45 27 3
45 28 8
45 29 12
45 30 13
45 31 1
45 32 13
45 33 9
45 34 8
45 35 8
45 36 12
45 37 14
45 38 11
45 39 11
45 40 7
45 41 13
45 42 2
45 43 3
45 44 4
46 0 1
46 1 8
46 2 6
46 3 13
46 4 3
46 5 8
46 6 10
46 7 3
46 8 5
46 9 5
46 10 14
46 11 8
46 12 5
46 13 14
46 14 14
46 15 5
46 16 6
46 17 8
46 18 12
46 19 6
46 20 7
46 21 6
46 22 4
46 23 12
46 24 2
46 25 9
46 26 8
46 27 2
46 28 11
46 29 5
46 30 9
46 31 4
46 32 8
46 33 8
46 34 1
46 35 11
46 36 3
46 37 7
46 38 7
46 39 12
46 40 12
46 41 1
46 42 4
46 43 1
46 44 14
46 45 3
47 0 3
47 1 10
47 2 12
47 3 2
47 4 8
47 5 13
47 6 12
47 7 11
47 8 3
47 9 13
47 10 6
47 11 9
47 12 12
47 13 14
47 14 5
47 15 10
47 16 12
47 17 7
47 18 10
47 19 13
47 20 13
47 21 11
47 22 4
47 23 8
47 24 9
47 25 10
47 26 13
47 27 8
47 28 6
47 29 6
47 30 4
47 31 3
47 32 14
47 33 12
47 34 9
47 35 6
47 36 6
47 37 8
47 38 14
47 39 4
47 40 5
47 41 11
47 42 9
47 43 9
47 44 9
47 45 8
47 46 1
48 0 14
48 1 4
48 2 7
48 3 14
48 4 10
48 5 14
48 6 8
48 7 2
48 8 9
48 9 4
48 10 8
48 11 10
48 12 9
48 13 3
48 14 11
48 15 6
48 16 13
48 17 1
48 18 12
48 19 5
48 20 9
48 21 9
48 22 4
48 23 6
48 24 2
48 25 8
48 26 11
48 27 1
48 28 2
48 29 10
48 30 3
48 31 5
48 32 6
48 33 11
48 34 4
48 35 13
48 36 11
48 37 2
48 38 3
48 39 8
48 40 8
48 41 13
48 42 10
48 43 10
48 44 14
48 45 12
48 46 10
48 47 12
49 0 14
49 1 13
49 2 14
49 3 8
49 4 10
49 5 11
49 6 1
49 7 10
49 8 1
49 9 11
49 10 7
49 11 10
49 12 6
49 13 2
49 14 14
49 15 1
49 16 4
49 17 3
49 18 14
49 19 5
49 20 2
49 21 14
49 22 11
49 23 8
49 24 2
49 25 9
49 26 9
49 27 3
49 28 8
49 29 3
49 30 10
49 31 2
49 32 6
49 33 13
49 34 13
49 35 3
49 36 6
49 37 11
49 38 13
49 39 13
49 40 13
49 41 2
49 42 10
49 43 2
49 44 12
49 45 13
49 46 6
49 47 6
49 48 9
50 0 3
50 1 13
50 2 3
50 3 10
50 4 1
50 5 14
50 6 9
50 7 3
50 8 3
50 9 9
50 10 5
50 11 6
50 12 13
50 13 3
50 14 10
50 15 6
50 16 7
50 17 13
50 18 7
50 19 9
50 20 3
50 21 8
50 22 9
50 23 14
50 24 12
50 25 10
50 26 14
50 27 14
50 28 8
50 29 13
50 30 3
50 31 10
50 32 11
50 33 11
50 34 14
50 35 14
50 36 2
50 37 4
50 38 1
50 39 12
50 40 6
50 41 7
50 42 4
50 43 7
50 44 9
50 45 7
50 46 5
50 47 10
50 48 2
50 49 8
51 0 2
51 1 3
51 2 4
51 3 10
51 4 1
51 5 3
51 6 14
51 7 3
51 8 1
51 9 8
51 10 14
51 11 8
51 12 14
51 13 13
51 14 12
51 15 9
51 16 12
51 17 12
51 18 3
51 19 11
51 20 9
51 21 13
51 22 2
51 23 2
51 24 4
51 25 13
51 26 12
51 27 4
51 28 11
51 29 7
51 30 12
51 31 9
51 32 10
51 33 6
51 34 2
51 35 1
51 36 6
51 37 5
51 38 14
51 39 10
51 40 2
51 41 14
51 42 12
51 43 9
51 44 1
51 45 6
51 46 3
51 47 3
51 48 9
51 49 13
51 50 11
52 0 9
52 1 4
52 2 7
52 3 5
52 4 3
52 5 14
52 6 1
52 7 9
52 8 7
52 9 9
52 10 12
52 11 1
52 12 7
52 13 8
52 14 14
52 15 11
52 16 13
52 17 10
52 18 1
52 19 3
52 20 7
52 21 11
52 22 3
52 23 8
52 24 8
52 25 1
52 26 8
52 27 11
52 28 1
52 29 5
52 30 5
52 31 13
52 32 2
52 33 12
52 34 8
52 35 6
52 36 14
52 37 8
52 38 13
52 39 2
52 40 12
52 41 12
52 42 10
52 43 13
52 44 14
52 45 1
52 46 5
52 47 9
52 48 9
52 49 5
52 50 1
52 51 12
53 0 2
53 1 10
53 2 13
53 3 9
53 4 3
53 5 7
53 6 11
53 7 9
53 8 10
53 9 11
53 10 9
53 11 6
53 12 10
53 13 9
53 14 14
53 15 6
53 16 11
53 17 10
53 18 12
53 19 4
53 20 5
53 21 4
53 22 2
53 23 6
53 24 13
53 25 12
53 26 6
53 27 6
53 28 7
53 29 12
53 30 3
53 31 6
53 32 14
53 33 9
53 34 11
53 35 7
53 36 11
53 37 7
53 38 2
53 39 5
53 40 8
53 41 4
53 42 14
53 43 2
53 44 6
53 45 2
53 46 13
53 47 12
53 48 7
53 49 14
53 50 4
53 51 8
53 52 4
54 0 9
54 1 4
54 2 6
54 3 11
54 4 10
54 5 8
54 6 2
54 7 6
54 8 4
54 9 14
54 10 8
54 11 3
54 12 2
54 13 9
54 14 2
54 15 6
54 16 7
54 17 14
54 18 14
54 19 8
54 20 5
54 21 3
54 22 12
54 23 11
54 24 8
54 25 3
54 26 3
54 27 9
54 28 12
54 29 5
54 30 6
54 31 9
54 32 13
54 33 14
54 34 13
54 35 6
54 36 1
54 37 11
54 38 9
54 39 4
54 40 6
54 41 4
54 42 4
54 43 14
54 44 8
54 45 7
54 46 9
54 47 12
54 48 11
54 49 10
54 50 6
54 51 13
54 52 3
54 53 3
55 0 9
55 1 3
55 2 9
55 3 10
55 4 1
55 5 11
55 6 14
55 7 5
55 8 4
55 9 9
55 10 14
55 11 4
55 12 6
55 13 9
55 14 14
55 15 7
55 16 9
55 17 13
55 18 11
55 19 11
55 20 4
55 21 9
55 22 11
55 23 12
55 24 1
55 25 14
55 26 6
55 27 3
55 28 4
55 29 8
55 30 10
55 31 12
55 32 13
55 33 10
55 34 2
55 35 5
55 36 13
55 37 3
55 38 2
55 39 11
55 40 11
55 41 12
55 42 9
55 43 3
55 44 9
55 45 12
55 46 3
55 47 7
55 48 9
55 49 8
55 50 11
55 51 11
55 52 14
55 53 11
55 54 11
56 0 9
56 1 13
56 2 10
56 3 6
56 4 12
56 5 4
56 6 12
56 7 11
56 8 6
56 9 11
56 10 9
56 11 11
56 12 1
56 13 12
56 14 8
56 15 10
56 16 9
56 17 12
56 18 6
56 19 9
56 20 5
56 21 13
56 22 12
56 23 8
56 24 5
56 25 6
56 26 9
56 27 14
56 28 14
56 29 10
56 30 8
56 31 1
56 32 11
56 33 12
56 34 6
56 35 12
56 36 9
56 37 4
56 38 4
56 39 1
56 40 4
56 41 13
56 42 7
56 43 7
56 44 4
56 45 3
56 46 7
56 47 6
56 48 5
56 49 14
56 50 12
56 51 2
56 52 8
56 53 7
56 54 7
56 55 13
57 0 13
57 1 12
57 2 5
57 3 3
57 4 13
57 5 10
57 6 9
57 7 12
57 8 11
57 9 6
57 10 9
57 11 4
57 12 7
57 13 8
57 14 4
57 15 10
57 16 9
57 17 12
57 18 1
57 19 7
57 20 11
57 21 1
57 22 8
57 23 13
57 24 3
57 25 2
57 26 10
57 27 7
57 28 11
57 29 5
57 30 13
57 31 7
57 32 5
57 33 7
57 34 5
57 35 9
57 36 10
57 37 8
57 38 8
57 39 3
57 40 5
57 41 7
57 42 12
57 43 9
57 44 4
57 45 11
57 46 8
57 47 14
57 48 3
57 49 2
57 50 11
57 51 8
57 52 5
57 53 3
57 54 6
57 55 10
57 56 3
58 0 4
58 1 4
58 2 9
58 3 4
58 4 11
58 5 12
58 6 11
58 7 9
58 8 4
58 9 6
58 10 1
58 11 11
58 12 3
58 13 12
58 14 1
58 15 5
58 16 3
58 17 14
58 18 5
58 19 1
58 20 5
58 21 1
58 22 12
58 23 10
58 24 9
58 25 9
58 26 1
58 27 1
58 28 7
58 29 12
58 30 4
58 31 7
58 32 4
58 33 2
58 34 3
58 35 10
58 36 14
58 37 12
58 38 1
58 39 14
58 40 1
58 41 14
58 42 1
58 43 5
58 44 14
58 45 12
58 46 7
58 47 1
58 48 6
58 49 5
58 50 10
58 51 3
58 52 5
58 53 5
58 54 10
58 55 10
58 56 4
58 57 7
59 0 3
59 1 8
59 2 10
59 3 5
59 4 4
59 5 4
59 6 14
59 7 13
59 8 10
59 9 8
59 10 12
59 11 1
59 12 2
59 13 12
59 14 6
59 15 2
59 16 14
59 17 4
59 18 2
59 19 8
59 20 12
59 21 2
59 22 8
59 23 10
59 24 14
59 25 6
59 26 1
59 27 7
59 28 13
59 29 4
59 30 10
59 31 5
59 32 2
59 33 2
59 34 1
59 35 9
59 36 11
59 37 3
59 38 11
59 39 12
59 40 8
59 41 12
59 42 9
59 43 11
59 44 13
59 45 6
59 46 1
59 47 9
59 48 5
59 49 9
59 50 7
59 51 14
59 52 14
59 53 2
59 54 13
59 55 10
59 56 7
59 57 5
59 58 8
